(set-option :produce-models true)
(set-logic QF_LRA)
(set-info :notes | Strip-packing problem.|)
(declare-fun x0 () Real)
(declare-fun y0 () Real)
(declare-fun x1 () Real)
(declare-fun y1 () Real)
(declare-fun x2 () Real)
(declare-fun y2 () Real)
(declare-fun x3 () Real)
(declare-fun y3 () Real)
(declare-fun x4 () Real)
(declare-fun y4 () Real)
(declare-fun x5 () Real)
(declare-fun y5 () Real)
(declare-fun x6 () Real)
(declare-fun y6 () Real)
(declare-fun x7 () Real)
(declare-fun y7 () Real)
(declare-fun x8 () Real)
(declare-fun y8 () Real)
(declare-fun x9 () Real)
(declare-fun y9 () Real)
(declare-fun x10 () Real)
(declare-fun y10 () Real)
(declare-fun x11 () Real)
(declare-fun y11 () Real)
(declare-fun z () Real)
(declare-fun c () Real)
(assert (and (= c z) (and (>= x0 0) 
(and (>= y0 0) 
(and (>= x1 0) 
(and (>= y1 0) 
(and (>= x2 0) 
(and (>= y2 0) 
(and (>= x3 0) 
(and (>= y3 0) 
(and (>= x4 0) 
(and (>= y4 0) 
(and (>= x5 0) 
(and (>= y5 0) 
(and (>= x6 0) 
(and (>= y6 0) 
(and (>= x7 0) 
(and (>= y7 0) 
(and (>= x8 0) 
(and (>= y8 0) 
(and (>= x9 0) 
(and (>= y9 0) 
(and (>= x10 0) 
(and (>= y10 0) 
(and (>= x11 0) 
(and (>= y11 0) 
(and (>= z 0) 
(and (>= c 0) 
(and (<= (+ x0 0.208474064) z) 
(and (<= 0.9689662639 y0) 
(and (<= y0 1.0) 
(and (<= x0 (- 5.7242004096 0.208474064)) 
(and (>= x0 0) 
(and (<= (+ x1 0.9879818501) z) 
(and (<= 0.9303199373 y1) 
(and (<= y1 1.0) 
(and (<= x1 (- 5.7242004096 0.9879818501)) 
(and (>= x1 0) 
(and (<= (+ x2 0.2405121162) z) 
(and (<= 0.7915469083 y2) 
(and (<= y2 1.0) 
(and (<= x2 (- 5.7242004096 0.2405121162)) 
(and (>= x2 0) 
(and (<= (+ x3 0.8276855693) z) 
(and (<= 0.7151185953 y3) 
(and (<= y3 1.0) 
(and (<= x3 (- 5.7242004096 0.8276855693)) 
(and (>= x3 0) 
(and (<= (+ x4 0.162258029) z) 
(and (<= 0.6825202276 y4) 
(and (<= y4 1.0) 
(and (<= x4 (- 5.7242004096 0.162258029)) 
(and (>= x4 0) 
(and (<= (+ x5 0.9157305995) z) 
(and (<= 0.6055634835 y5) 
(and (<= y5 1.0) 
(and (<= x5 (- 5.7242004096 0.9157305995)) 
(and (>= x5 0) 
(and (<= (+ x6 0.5395635962) z) 
(and (<= 0.4191186147 y6) 
(and (<= y6 1.0) 
(and (<= x6 (- 5.7242004096 0.5395635962)) 
(and (>= x6 0) 
(and (<= (+ x7 0.4977666904) z) 
(and (<= 0.3684083946 y7) 
(and (<= y7 1.0) 
(and (<= x7 (- 5.7242004096 0.4977666904)) 
(and (>= x7 0) 
(and (<= (+ x8 0.1786220318) z) 
(and (<= 0.182897863 y8) 
(and (<= y8 1.0) 
(and (<= x8 (- 5.7242004096 0.1786220318)) 
(and (>= x8 0) 
(and (<= (+ x9 0.9042003677) z) 
(and (<= 0.1803553968 y9) 
(and (<= y9 1.0) 
(and (<= x9 (- 5.7242004096 0.9042003677)) 
(and (>= x9 0) 
(and (<= (+ x10 0.8973784679) z) 
(and (<= 0.136219833 y10) 
(and (<= y10 1.0) 
(and (<= x10 (- 5.7242004096 0.8973784679)) 
(and (>= x10 0) 
(and (<= (+ x11 0.9377942176) z) 
(and (<= 0.1148067052 y11) 
(and (<= y11 1.0) 
(and (<= x11 (- 5.7242004096 0.9377942176)) 
(and (>= x11 0) 
(and (<= c 5.7242004096) 
(and (or (<= (+ x0 0.208474064) x1) (or (<= (+ x1 0.9879818501) x0) (or (>= (- y0 0.9689662639) y1) (or (>= (- y1 0.9303199373) y0))))) 
(and (or (<= (+ x0 0.208474064) x2) (or (<= (+ x2 0.2405121162) x0) (or (>= (- y0 0.9689662639) y2) (or (>= (- y2 0.7915469083) y0))))) 
(and (or (<= (+ x0 0.208474064) x3) (or (<= (+ x3 0.8276855693) x0) (or (>= (- y0 0.9689662639) y3) (or (>= (- y3 0.7151185953) y0))))) 
(and (or (<= (+ x0 0.208474064) x4) (or (<= (+ x4 0.162258029) x0) (or (>= (- y0 0.9689662639) y4) (or (>= (- y4 0.6825202276) y0))))) 
(and (or (<= (+ x0 0.208474064) x5) (or (<= (+ x5 0.9157305995) x0) (or (>= (- y0 0.9689662639) y5) (or (>= (- y5 0.6055634835) y0))))) 
(and (or (<= (+ x0 0.208474064) x6) (or (<= (+ x6 0.5395635962) x0) (or (>= (- y0 0.9689662639) y6) (or (>= (- y6 0.4191186147) y0))))) 
(and (or (<= (+ x0 0.208474064) x7) (or (<= (+ x7 0.4977666904) x0) (or (>= (- y0 0.9689662639) y7) (or (>= (- y7 0.3684083946) y0))))) 
(and (or (<= (+ x0 0.208474064) x8) (or (<= (+ x8 0.1786220318) x0) (or (>= (- y0 0.9689662639) y8) (or (>= (- y8 0.182897863) y0))))) 
(and (or (<= (+ x0 0.208474064) x9) (or (<= (+ x9 0.9042003677) x0) (or (>= (- y0 0.9689662639) y9) (or (>= (- y9 0.1803553968) y0))))) 
(and (or (<= (+ x0 0.208474064) x10) (or (<= (+ x10 0.8973784679) x0) (or (>= (- y0 0.9689662639) y10) (or (>= (- y10 0.136219833) y0))))) 
(and (or (<= (+ x0 0.208474064) x11) (or (<= (+ x11 0.9377942176) x0) (or (>= (- y0 0.9689662639) y11) (or (>= (- y11 0.1148067052) y0))))) 
(and (or (<= (+ x1 0.9879818501) x2) (or (<= (+ x2 0.2405121162) x1) (or (>= (- y1 0.9303199373) y2) (or (>= (- y2 0.7915469083) y1))))) 
(and (or (<= (+ x1 0.9879818501) x3) (or (<= (+ x3 0.8276855693) x1) (or (>= (- y1 0.9303199373) y3) (or (>= (- y3 0.7151185953) y1))))) 
(and (or (<= (+ x1 0.9879818501) x4) (or (<= (+ x4 0.162258029) x1) (or (>= (- y1 0.9303199373) y4) (or (>= (- y4 0.6825202276) y1))))) 
(and (or (<= (+ x1 0.9879818501) x5) (or (<= (+ x5 0.9157305995) x1) (or (>= (- y1 0.9303199373) y5) (or (>= (- y5 0.6055634835) y1))))) 
(and (or (<= (+ x1 0.9879818501) x6) (or (<= (+ x6 0.5395635962) x1) (or (>= (- y1 0.9303199373) y6) (or (>= (- y6 0.4191186147) y1))))) 
(and (or (<= (+ x1 0.9879818501) x7) (or (<= (+ x7 0.4977666904) x1) (or (>= (- y1 0.9303199373) y7) (or (>= (- y7 0.3684083946) y1))))) 
(and (or (<= (+ x1 0.9879818501) x8) (or (<= (+ x8 0.1786220318) x1) (or (>= (- y1 0.9303199373) y8) (or (>= (- y8 0.182897863) y1))))) 
(and (or (<= (+ x1 0.9879818501) x9) (or (<= (+ x9 0.9042003677) x1) (or (>= (- y1 0.9303199373) y9) (or (>= (- y9 0.1803553968) y1))))) 
(and (or (<= (+ x1 0.9879818501) x10) (or (<= (+ x10 0.8973784679) x1) (or (>= (- y1 0.9303199373) y10) (or (>= (- y10 0.136219833) y1))))) 
(and (or (<= (+ x1 0.9879818501) x11) (or (<= (+ x11 0.9377942176) x1) (or (>= (- y1 0.9303199373) y11) (or (>= (- y11 0.1148067052) y1))))) 
(and (or (<= (+ x2 0.2405121162) x3) (or (<= (+ x3 0.8276855693) x2) (or (>= (- y2 0.7915469083) y3) (or (>= (- y3 0.7151185953) y2))))) 
(and (or (<= (+ x2 0.2405121162) x4) (or (<= (+ x4 0.162258029) x2) (or (>= (- y2 0.7915469083) y4) (or (>= (- y4 0.6825202276) y2))))) 
(and (or (<= (+ x2 0.2405121162) x5) (or (<= (+ x5 0.9157305995) x2) (or (>= (- y2 0.7915469083) y5) (or (>= (- y5 0.6055634835) y2))))) 
(and (or (<= (+ x2 0.2405121162) x6) (or (<= (+ x6 0.5395635962) x2) (or (>= (- y2 0.7915469083) y6) (or (>= (- y6 0.4191186147) y2))))) 
(and (or (<= (+ x2 0.2405121162) x7) (or (<= (+ x7 0.4977666904) x2) (or (>= (- y2 0.7915469083) y7) (or (>= (- y7 0.3684083946) y2))))) 
(and (or (<= (+ x2 0.2405121162) x8) (or (<= (+ x8 0.1786220318) x2) (or (>= (- y2 0.7915469083) y8) (or (>= (- y8 0.182897863) y2))))) 
(and (or (<= (+ x2 0.2405121162) x9) (or (<= (+ x9 0.9042003677) x2) (or (>= (- y2 0.7915469083) y9) (or (>= (- y9 0.1803553968) y2))))) 
(and (or (<= (+ x2 0.2405121162) x10) (or (<= (+ x10 0.8973784679) x2) (or (>= (- y2 0.7915469083) y10) (or (>= (- y10 0.136219833) y2))))) 
(and (or (<= (+ x2 0.2405121162) x11) (or (<= (+ x11 0.9377942176) x2) (or (>= (- y2 0.7915469083) y11) (or (>= (- y11 0.1148067052) y2))))) 
(and (or (<= (+ x3 0.8276855693) x4) (or (<= (+ x4 0.162258029) x3) (or (>= (- y3 0.7151185953) y4) (or (>= (- y4 0.6825202276) y3))))) 
(and (or (<= (+ x3 0.8276855693) x5) (or (<= (+ x5 0.9157305995) x3) (or (>= (- y3 0.7151185953) y5) (or (>= (- y5 0.6055634835) y3))))) 
(and (or (<= (+ x3 0.8276855693) x6) (or (<= (+ x6 0.5395635962) x3) (or (>= (- y3 0.7151185953) y6) (or (>= (- y6 0.4191186147) y3))))) 
(and (or (<= (+ x3 0.8276855693) x7) (or (<= (+ x7 0.4977666904) x3) (or (>= (- y3 0.7151185953) y7) (or (>= (- y7 0.3684083946) y3))))) 
(and (or (<= (+ x3 0.8276855693) x8) (or (<= (+ x8 0.1786220318) x3) (or (>= (- y3 0.7151185953) y8) (or (>= (- y8 0.182897863) y3))))) 
(and (or (<= (+ x3 0.8276855693) x9) (or (<= (+ x9 0.9042003677) x3) (or (>= (- y3 0.7151185953) y9) (or (>= (- y9 0.1803553968) y3))))) 
(and (or (<= (+ x3 0.8276855693) x10) (or (<= (+ x10 0.8973784679) x3) (or (>= (- y3 0.7151185953) y10) (or (>= (- y10 0.136219833) y3))))) 
(and (or (<= (+ x3 0.8276855693) x11) (or (<= (+ x11 0.9377942176) x3) (or (>= (- y3 0.7151185953) y11) (or (>= (- y11 0.1148067052) y3))))) 
(and (or (<= (+ x4 0.162258029) x5) (or (<= (+ x5 0.9157305995) x4) (or (>= (- y4 0.6825202276) y5) (or (>= (- y5 0.6055634835) y4))))) 
(and (or (<= (+ x4 0.162258029) x6) (or (<= (+ x6 0.5395635962) x4) (or (>= (- y4 0.6825202276) y6) (or (>= (- y6 0.4191186147) y4))))) 
(and (or (<= (+ x4 0.162258029) x7) (or (<= (+ x7 0.4977666904) x4) (or (>= (- y4 0.6825202276) y7) (or (>= (- y7 0.3684083946) y4))))) 
(and (or (<= (+ x4 0.162258029) x8) (or (<= (+ x8 0.1786220318) x4) (or (>= (- y4 0.6825202276) y8) (or (>= (- y8 0.182897863) y4))))) 
(and (or (<= (+ x4 0.162258029) x9) (or (<= (+ x9 0.9042003677) x4) (or (>= (- y4 0.6825202276) y9) (or (>= (- y9 0.1803553968) y4))))) 
(and (or (<= (+ x4 0.162258029) x10) (or (<= (+ x10 0.8973784679) x4) (or (>= (- y4 0.6825202276) y10) (or (>= (- y10 0.136219833) y4))))) 
(and (or (<= (+ x4 0.162258029) x11) (or (<= (+ x11 0.9377942176) x4) (or (>= (- y4 0.6825202276) y11) (or (>= (- y11 0.1148067052) y4))))) 
(and (or (<= (+ x5 0.9157305995) x6) (or (<= (+ x6 0.5395635962) x5) (or (>= (- y5 0.6055634835) y6) (or (>= (- y6 0.4191186147) y5))))) 
(and (or (<= (+ x5 0.9157305995) x7) (or (<= (+ x7 0.4977666904) x5) (or (>= (- y5 0.6055634835) y7) (or (>= (- y7 0.3684083946) y5))))) 
(and (or (<= (+ x5 0.9157305995) x8) (or (<= (+ x8 0.1786220318) x5) (or (>= (- y5 0.6055634835) y8) (or (>= (- y8 0.182897863) y5))))) 
(and (or (<= (+ x5 0.9157305995) x9) (or (<= (+ x9 0.9042003677) x5) (or (>= (- y5 0.6055634835) y9) (or (>= (- y9 0.1803553968) y5))))) 
(and (or (<= (+ x5 0.9157305995) x10) (or (<= (+ x10 0.8973784679) x5) (or (>= (- y5 0.6055634835) y10) (or (>= (- y10 0.136219833) y5))))) 
(and (or (<= (+ x5 0.9157305995) x11) (or (<= (+ x11 0.9377942176) x5) (or (>= (- y5 0.6055634835) y11) (or (>= (- y11 0.1148067052) y5))))) 
(and (or (<= (+ x6 0.5395635962) x7) (or (<= (+ x7 0.4977666904) x6) (or (>= (- y6 0.4191186147) y7) (or (>= (- y7 0.3684083946) y6))))) 
(and (or (<= (+ x6 0.5395635962) x8) (or (<= (+ x8 0.1786220318) x6) (or (>= (- y6 0.4191186147) y8) (or (>= (- y8 0.182897863) y6))))) 
(and (or (<= (+ x6 0.5395635962) x9) (or (<= (+ x9 0.9042003677) x6) (or (>= (- y6 0.4191186147) y9) (or (>= (- y9 0.1803553968) y6))))) 
(and (or (<= (+ x6 0.5395635962) x10) (or (<= (+ x10 0.8973784679) x6) (or (>= (- y6 0.4191186147) y10) (or (>= (- y10 0.136219833) y6))))) 
(and (or (<= (+ x6 0.5395635962) x11) (or (<= (+ x11 0.9377942176) x6) (or (>= (- y6 0.4191186147) y11) (or (>= (- y11 0.1148067052) y6))))) 
(and (or (<= (+ x7 0.4977666904) x8) (or (<= (+ x8 0.1786220318) x7) (or (>= (- y7 0.3684083946) y8) (or (>= (- y8 0.182897863) y7))))) 
(and (or (<= (+ x7 0.4977666904) x9) (or (<= (+ x9 0.9042003677) x7) (or (>= (- y7 0.3684083946) y9) (or (>= (- y9 0.1803553968) y7))))) 
(and (or (<= (+ x7 0.4977666904) x10) (or (<= (+ x10 0.8973784679) x7) (or (>= (- y7 0.3684083946) y10) (or (>= (- y10 0.136219833) y7))))) 
(and (or (<= (+ x7 0.4977666904) x11) (or (<= (+ x11 0.9377942176) x7) (or (>= (- y7 0.3684083946) y11) (or (>= (- y11 0.1148067052) y7))))) 
(and (or (<= (+ x8 0.1786220318) x9) (or (<= (+ x9 0.9042003677) x8) (or (>= (- y8 0.182897863) y9) (or (>= (- y9 0.1803553968) y8))))) 
(and (or (<= (+ x8 0.1786220318) x10) (or (<= (+ x10 0.8973784679) x8) (or (>= (- y8 0.182897863) y10) (or (>= (- y10 0.136219833) y8))))) 
(and (or (<= (+ x8 0.1786220318) x11) (or (<= (+ x11 0.9377942176) x8) (or (>= (- y8 0.182897863) y11) (or (>= (- y11 0.1148067052) y8))))) 
(and (or (<= (+ x9 0.9042003677) x10) (or (<= (+ x10 0.8973784679) x9) (or (>= (- y9 0.1803553968) y10) (or (>= (- y10 0.136219833) y9))))) 
(and (or (<= (+ x9 0.9042003677) x11) (or (<= (+ x11 0.9377942176) x9) (or (>= (- y9 0.1803553968) y11) (or (>= (- y11 0.1148067052) y9))))) 
(and (or (<= (+ x10 0.8973784679) x11) (or (<= (+ x11 0.9377942176) x10) (or (>= (- y10 0.136219833) y11) (or (>= (- y11 0.1148067052) y10))))) )))))))))))))))))))))))))))))))))))))))))))))))))))))))))))))))))))))))))))))))))))))))))))))))))))))))))))))))))))))))))))))))))))))))))))))))))))))))))))
(minimize c)
(check-sat)
(get-objectives)
(exit)
